p edge 100 2475
e 1 5
e 1 6
e 1 7
e 1 8
e 1 9
e 1 11
e 1 14
e 1 17
e 1 18
e 1 19
e 1 20
e 1 22
e 1 24
e 1 29
e 1 30
e 1 31
e 1 34
e 1 35
e 1 36
e 1 37
e 1 42
e 1 45
e 1 50
e 1 53
e 1 56
e 1 57
e 1 58
e 1 62
e 1 63
e 1 64
e 1 66
e 1 68
e 1 69
e 1 73
e 1 74
e 1 75
e 1 78
e 1 80
e 1 83
e 1 84
e 1 86
e 1 90
e 1 94
e 1 97
e 1 98
e 1 99
e 2 7
e 2 8
e 2 10
e 2 11
e 2 12
e 2 13
e 2 14
e 2 16
e 2 18
e 2 20
e 2 21
e 2 23
e 2 24
e 2 25
e 2 27
e 2 28
e 2 31
e 2 33
e 2 34
e 2 36
e 2 37
e 2 38
e 2 41
e 2 42
e 2 43
e 2 44
e 2 46
e 2 49
e 2 50
e 2 51
e 2 52
e 2 57
e 2 58
e 2 59
e 2 60
e 2 61
e 2 62
e 2 63
e 2 65
e 2 67
e 2 68
e 2 69
e 2 70
e 2 73
e 2 76
e 2 77
e 2 78
e 2 83
e 2 84
e 2 86
e 2 89
e 2 91
e 2 93
e 2 98
e 2 99
e 3 5
e 3 7
e 3 8
e 3 10
e 3 11
e 3 12
e 3 13
e 3 14
e 3 16
e 3 21
e 3 25
e 3 26
e 3 28
e 3 29
e 3 32
e 3 33
e 3 34
e 3 36
e 3 37
e 3 39
e 3 44
e 3 48
e 3 51
e 3 52
e 3 54
e 3 55
e 3 56
e 3 61
e 3 62
e 3 63
e 3 64
e 3 66
e 3 67
e 3 69
e 3 70
e 3 71
e 3 72
e 3 73
e 3 74
e 3 77
e 3 80
e 3 81
e 3 82
e 3 83
e 3 87
e 3 89
e 3 90
e 3 93
e 4 6
e 4 10
e 4 11
e 4 15
e 4 17
e 4 20
e 4 21
e 4 22
e 4 23
e 4 24
e 4 25
e 4 27
e 4 29
e 4 33
e 4 36
e 4 38
e 4 39
e 4 40
e 4 41
e 4 43
e 4 46
e 4 47
e 4 51
e 4 55
e 4 56
e 4 58
e 4 59
e 4 62
e 4 63
e 4 64
e 4 65
e 4 67
e 4 68
e 4 71
e 4 74
e 4 75
e 4 77
e 4 78
e 4 81
e 4 88
e 4 95
e 4 96
e 4 97
e 4 99
e 4 100
e 5 6
e 5 7
e 5 8
e 5 10
e 5 12
e 5 13
e 5 14
e 5 18
e 5 21
e 5 24
e 5 25
e 5 29
e 5 32
e 5 33
e 5 35
e 5 39
e 5 42
e 5 44
e 5 46
e 5 48
e 5 49
e 5 51
e 5 55
e 5 59
e 5 60
e 5 62
e 5 65
e 5 66
e 5 68
e 5 69
e 5 74
e 5 76
e 5 77
e 5 79
e 5 81
e 5 82
e 5 83
e 5 85
e 5 87
e 5 88
e 5 89
e 5 90
e 5 91
e 5 93
e 5 94
e 5 96
e 5 97
e 5 98
e 5 99
e 5 100
e 6 9
e 6 10
e 6 12
e 6 13
e 6 17
e 6 22
e 6 23
e 6 24
e 6 27
e 6 28
e 6 29
e 6 31
e 6 32
e 6 33
e 6 39
e 6 40
e 6 41
e 6 44
e 6 45
e 6 50
e 6 51
e 6 52
e 6 53
e 6 55
e 6 58
e 6 61
e 6 62
e 6 63
e 6 68
e 6 74
e 6 75
e 6 77
e 6 78
e 6 82
e 6 83
e 6 85
e 6 88
e 6 89
e 6 90
e 6 91
e 6 92
e 6 93
e 6 94
e 6 98
e 6 99
e 6 100
e 7 9
e 7 13
e 7 15
e 7 16
e 7 18
e 7 19
e 7 22
e 7 23
e 7 24
e 7 34
e 7 36
e 7 39
e 7 44
e 7 54
e 7 55
e 7 56
e 7 63
e 7 65
e 7 69
e 7 70
e 7 71
e 7 74
e 7 75
e 7 76
e 7 78
e 7 80
e 7 84
e 7 86
e 7 87
e 7 89
e 7 91
e 7 93
e 7 95
e 7 97
e 7 98
e 8 9
e 8 11
e 8 12
e 8 13
e 8 16
e 8 17
e 8 19
e 8 21
e 8 22
e 8 23
e 8 24
e 8 26
e 8 27
e 8 29
e 8 32
e 8 38
e 8 39
e 8 40
e 8 44
e 8 45
e 8 48
e 8 49
e 8 51
e 8 53
e 8 54
e 8 55
e 8 57
e 8 58
e 8 59
e 8 60
e 8 61
e 8 64
e 8 65
e 8 67
e 8 68
e 8 69
e 8 71
e 8 74
e 8 75
e 8 76
e 8 77
e 8 78
e 8 79
e 8 80
e 8 82
e 8 84
e 8 85
e 8 86
e 8 88
e 8 90
e 8 91
e 8 92
e 8 93
e 8 94
e 8 98
e 8 99
e 9 10
e 9 11
e 9 14
e 9 15
e 9 16
e 9 17
e 9 19
e 9 20
e 9 24
e 9 25
e 9 27
e 9 28
e 9 30
e 9 31
e 9 32
e 9 34
e 9 35
e 9 36
e 9 37
e 9 38
e 9 39
e 9 40
e 9 41
e 9 42
e 9 43
e 9 47
e 9 50
e 9 52
e 9 53
e 9 56
e 9 57
e 9 58
e 9 60
e 9 61
e 9 65
e 9 67
e 9 69
e 9 72
e 9 73
e 9 75
e 9 76
e 9 77
e 9 78
e 9 79
e 9 84
e 9 85
e 9 86
e 9 89
e 9 90
e 9 91
e 9 92
e 9 93
e 9 94
e 9 96
e 9 100
e 10 13
e 10 14
e 10 19
e 10 20
e 10 22
e 10 24
e 10 26
e 10 27
e 10 28
e 10 31
e 10 32
e 10 34
e 10 35
e 10 38
e 10 39
e 10 40
e 10 43
e 10 44
e 10 51
e 10 52
e 10 54
e 10 57
e 10 58
e 10 59
e 10 60
e 10 62
e 10 63
e 10 68
e 10 73
e 10 74
e 10 79
e 10 81
e 10 84
e 10 86
e 10 89
e 10 93
e 10 95
e 10 96
e 10 97
e 10 98
e 11 13
e 11 14
e 11 16
e 11 24
e 11 26
e 11 27
e 11 29
e 11 32
e 11 37
e 11 38
e 11 48
e 11 51
e 11 52
e 11 53
e 11 54
e 11 56
e 11 58
e 11 63
e 11 67
e 11 69
e 11 70
e 11 72
e 11 74
e 11 76
e 11 80
e 11 81
e 11 82
e 11 86
e 11 87
e 11 89
e 11 90
e 11 92
e 11 94
e 11 95
e 11 96
e 11 98
e 11 100
e 12 13
e 12 15
e 12 16
e 12 17
e 12 18
e 12 19
e 12 21
e 12 22
e 12 23
e 12 26
e 12 29
e 12 30
e 12 32
e 12 34
e 12 36
e 12 38
e 12 39
e 12 40
e 12 42
e 12 43
e 12 44
e 12 45
e 12 46
e 12 49
e 12 51
e 12 52
e 12 53
e 12 54
e 12 60
e 12 61
e 12 62
e 12 65
e 12 66
e 12 70
e 12 71
e 12 72
e 12 73
e 12 74
e 12 77
e 12 79
e 12 80
e 12 83
e 12 87
e 12 89
e 12 90
e 12 91
e 12 92
e 12 93
e 12 96
e 12 97
e 12 100
e 13 21
e 13 22
e 13 24
e 13 25
e 13 26
e 13 27
e 13 29
e 13 30
e 13 34
e 13 38
e 13 42
e 13 43
e 13 44
e 13 48
e 13 49
e 13 50
e 13 51
e 13 53
e 13 57
e 13 58
e 13 59
e 13 61
e 13 62
e 13 63
e 13 64
e 13 65
e 13 68
e 13 70
e 13 72
e 13 73
e 13 74
e 13 76
e 13 77
e 13 80
e 13 81
e 13 84
e 13 85
e 13 86
e 13 88
e 13 89
e 13 93
e 13 95
e 13 98
e 13 100
e 14 17
e 14 20
e 14 21
e 14 22
e 14 24
e 14 26
e 14 27
e 14 28
e 14 30
e 14 32
e 14 34
e 14 36
e 14 37
e 14 40
e 14 46
e 14 47
e 14 49
e 14 50
e 14 51
e 14 54
e 14 56
e 14 57
e 14 58
e 14 60
e 14 62
e 14 64
e 14 66
e 14 68
e 14 69
e 14 70
e 14 71
e 14 73
e 14 80
e 14 84
e 14 85
e 14 86
e 14 87
e 14 88
e 14 90
e 14 92
e 14 93
e 14 94
e 14 96
e 14 98
e 14 99
e 15 17
e 15 20
e 15 21
e 15 23
e 15 24
e 15 26
e 15 28
e 15 30
e 15 31
e 15 33
e 15 36
e 15 37
e 15 39
e 15 42
e 15 43
e 15 44
e 15 45
e 15 47
e 15 53
e 15 54
e 15 56
e 15 57
e 15 59
e 15 60
e 15 61
e 15 62
e 15 63
e 15 65
e 15 67
e 15 71
e 15 72
e 15 73
e 15 77
e 15 78
e 15 80
e 15 81
e 15 86
e 15 87
e 15 88
e 15 93
e 15 94
e 15 97
e 15 99
e 15 100
e 16 18
e 16 19
e 16 22
e 16 23
e 16 24
e 16 25
e 16 27
e 16 30
e 16 33
e 16 35
e 16 36
e 16 37
e 16 38
e 16 50
e 16 51
e 16 52
e 16 53
e 16 54
e 16 55
e 16 56
e 16 60
e 16 62
e 16 64
e 16 65
e 16 71
e 16 76
e 16 77
e 16 78
e 16 79
e 16 81
e 16 86
e 16 89
e 16 91
e 16 92
e 16 93
e 16 97
e 16 98
e 16 100
e 17 18
e 17 19
e 17 20
e 17 21
e 17 22
e 17 23
e 17 25
e 17 27
e 17 28
e 17 29
e 17 33
e 17 34
e 17 35
e 17 36
e 17 37
e 17 38
e 17 41
e 17 42
e 17 43
e 17 46
e 17 50
e 17 51
e 17 55
e 17 56
e 17 57
e 17 58
e 17 60
e 17 61
e 17 64
e 17 66
e 17 68
e 17 69
e 17 70
e 17 71
e 17 76
e 17 77
e 17 81
e 17 82
e 17 83
e 17 84
e 17 85
e 17 87
e 17 88
e 17 89
e 17 90
e 17 91
e 17 93
e 17 94
e 17 95
e 17 96
e 17 97
e 17 98
e 17 99
e 17 100
e 18 23
e 18 24
e 18 33
e 18 34
e 18 35
e 18 38
e 18 39
e 18 42
e 18 43
e 18 44
e 18 45
e 18 46
e 18 48
e 18 49
e 18 50
e 18 53
e 18 56
e 18 57
e 18 59
e 18 60
e 18 62
e 18 64
e 18 74
e 18 76
e 18 77
e 18 85
e 18 86
e 18 87
e 18 88
e 18 89
e 18 92
e 18 93
e 18 97
e 18 100
e 19 20
e 19 24
e 19 26
e 19 27
e 19 29
e 19 30
e 19 31
e 19 32
e 19 40
e 19 42
e 19 43
e 19 47
e 19 48
e 19 49
e 19 50
e 19 52
e 19 54
e 19 56
e 19 58
e 19 60
e 19 61
e 19 63
e 19 64
e 19 66
e 19 68
e 19 70
e 19 72
e 19 77
e 19 80
e 19 86
e 19 87
e 19 88
e 19 89
e 19 91
e 19 93
e 19 95
e 19 96
e 19 97
e 19 98
e 19 100
e 20 23
e 20 25
e 20 26
e 20 30
e 20 33
e 20 36
e 20 40
e 20 43
e 20 44
e 20 51
e 20 52
e 20 55
e 20 56
e 20 57
e 20 58
e 20 60
e 20 62
e 20 65
e 20 66
e 20 72
e 20 73
e 20 75
e 20 77
e 20 79
e 20 80
e 20 81
e 20 84
e 20 89
e 20 90
e 20 99
e 20 100
e 21 22
e 21 23
e 21 28
e 21 30
e 21 31
e 21 34
e 21 38
e 21 39
e 21 40
e 21 41
e 21 43
e 21 45
e 21 46
e 21 47
e 21 50
e 21 53
e 21 58
e 21 59
e 21 61
e 21 62
e 21 63
e 21 64
e 21 65
e 21 67
e 21 71
e 21 74
e 21 76
e 21 77
e 21 79
e 21 82
e 21 84
e 21 85
e 21 89
e 21 90
e 21 92
e 21 93
e 21 94
e 21 95
e 21 96
e 21 97
e 21 98
e 22 23
e 22 26
e 22 27
e 22 28
e 22 31
e 22 33
e 22 34
e 22 39
e 22 40
e 22 41
e 22 43
e 22 45
e 22 48
e 22 50
e 22 54
e 22 59
e 22 63
e 22 74
e 22 75
e 22 76
e 22 79
e 22 83
e 22 86
e 22 89
e 22 90
e 22 93
e 22 95
e 22 96
e 22 99
e 23 24
e 23 26
e 23 28
e 23 29
e 23 30
e 23 33
e 23 34
e 23 37
e 23 38
e 23 39
e 23 40
e 23 41
e 23 42
e 23 47
e 23 48
e 23 49
e 23 50
e 23 51
e 23 52
e 23 53
e 23 55
e 23 59
e 23 60
e 23 61
e 23 62
e 23 64
e 23 66
e 23 68
e 23 74
e 23 75
e 23 78
e 23 79
e 23 81
e 23 83
e 23 86
e 23 87
e 23 90
e 23 91
e 23 92
e 23 95
e 23 96
e 23 97
e 23 98
e 23 99
e 24 26
e 24 28
e 24 29
e 24 31
e 24 32
e 24 35
e 24 36
e 24 37
e 24 39
e 24 40
e 24 42
e 24 43
e 24 48
e 24 49
e 24 50
e 24 53
e 24 56
e 24 58
e 24 59
e 24 60
e 24 61
e 24 62
e 24 63
e 24 64
e 24 65
e 24 67
e 24 69
e 24 71
e 24 72
e 24 74
e 24 75
e 24 76
e 24 77
e 24 78
e 24 80
e 24 82
e 24 83
e 24 85
e 24 89
e 24 92
e 24 93
e 24 95
e 24 96
e 24 97
e 24 98
e 24 99
e 25 27
e 25 29
e 25 30
e 25 31
e 25 32
e 25 34
e 25 36
e 25 37
e 25 40
e 25 42
e 25 44
e 25 45
e 25 48
e 25 49
e 25 55
e 25 58
e 25 61
e 25 63
e 25 64
e 25 67
e 25 68
e 25 76
e 25 77
e 25 78
e 25 79
e 25 85
e 25 87
e 25 88
e 25 93
e 25 94
e 25 96
e 25 97
e 26 27
e 26 28
e 26 29
e 26 30
e 26 31
e 26 32
e 26 33
e 26 34
e 26 37
e 26 39
e 26 40
e 26 41
e 26 42
e 26 44
e 26 48
e 26 49
e 26 53
e 26 54
e 26 55
e 26 57
e 26 60
e 26 62
e 26 63
e 26 64
e 26 65
e 26 68
e 26 69
e 26 81
e 26 83
e 26 88
e 26 91
e 26 92
e 26 95
e 26 98
e 27 29
e 27 30
e 27 32
e 27 33
e 27 36
e 27 38
e 27 41
e 27 45
e 27 46
e 27 47
e 27 50
e 27 51
e 27 54
e 27 55
e 27 58
e 27 61
e 27 65
e 27 66
e 27 67
e 27 69
e 27 70
e 27 71
e 27 73
e 27 74
e 27 76
e 27 79
e 27 82
e 27 84
e 27 90
e 27 91
e 27 92
e 27 94
e 27 95
e 27 97
e 27 98
e 28 29
e 28 33
e 28 34
e 28 37
e 28 38
e 28 40
e 28 41
e 28 43
e 28 44
e 28 47
e 28 49
e 28 50
e 28 51
e 28 52
e 28 54
e 28 56
e 28 62
e 28 65
e 28 71
e 28 72
e 28 77
e 28 78
e 28 79
e 28 80
e 28 81
e 28 82
e 28 83
e 28 84
e 28 85
e 28 87
e 28 89
e 28 92
e 28 93
e 28 95
e 28 97
e 28 100
e 29 31
e 29 33
e 29 34
e 29 36
e 29 40
e 29 42
e 29 43
e 29 44
e 29 46
e 29 47
e 29 49
e 29 50
e 29 51
e 29 54
e 29 55
e 29 61
e 29 64
e 29 65
e 29 66
e 29 69
e 29 71
e 29 75
e 29 76
e 29 77
e 29 78
e 29 79
e 29 80
e 29 81
e 29 83
e 29 86
e 29 87
e 29 88
e 29 92
e 29 94
e 29 97
e 29 98
e 29 99
e 30 32
e 30 33
e 30 34
e 30 35
e 30 39
e 30 44
e 30 48
e 30 50
e 30 51
e 30 52
e 30 53
e 30 54
e 30 55
e 30 56
e 30 57
e 30 59
e 30 60
e 30 63
e 30 65
e 30 69
e 30 70
e 30 71
e 30 72
e 30 73
e 30 74
e 30 76
e 30 79
e 30 80
e 30 84
e 30 86
e 30 89
e 30 90
e 30 91
e 30 94
e 30 100
e 31 33
e 31 36
e 31 37
e 31 39
e 31 44
e 31 45
e 31 47
e 31 50
e 31 52
e 31 53
e 31 57
e 31 58
e 31 60
e 31 64
e 31 65
e 31 66
e 31 67
e 31 69
e 31 71
e 31 73
e 31 77
e 31 78
e 31 79
e 31 80
e 31 83
e 31 84
e 31 85
e 31 89
e 31 90
e 31 91
e 31 92
e 31 98
e 31 99
e 32 34
e 32 37
e 32 43
e 32 44
e 32 45
e 32 50
e 32 51
e 32 52
e 32 55
e 32 56
e 32 59
e 32 60
e 32 64
e 32 69
e 32 71
e 32 73
e 32 75
e 32 78
e 32 79
e 32 81
e 32 82
e 32 84
e 32 86
e 32 87
e 32 89
e 32 91
e 32 93
e 32 94
e 32 95
e 32 96
e 33 34
e 33 35
e 33 36
e 33 39
e 33 40
e 33 41
e 33 43
e 33 48
e 33 49
e 33 50
e 33 51
e 33 52
e 33 53
e 33 54
e 33 57
e 33 58
e 33 62
e 33 63
e 33 64
e 33 65
e 33 68
e 33 69
e 33 70
e 33 71
e 33 72
e 33 73
e 33 74
e 33 76
e 33 79
e 33 81
e 33 82
e 33 84
e 33 86
e 33 90
e 33 91
e 33 92
e 33 93
e 33 94
e 33 100
e 34 35
e 34 37
e 34 38
e 34 39
e 34 40
e 34 41
e 34 42
e 34 43
e 34 44
e 34 45
e 34 46
e 34 48
e 34 51
e 34 54
e 34 56
e 34 57
e 34 58
e 34 62
e 34 63
e 34 64
e 34 66
e 34 67
e 34 68
e 34 69
e 34 70
e 34 71
e 34 73
e 34 74
e 34 75
e 34 76
e 34 78
e 34 79
e 34 83
e 34 84
e 34 85
e 34 87
e 34 89
e 34 91
e 34 95
e 34 98
e 35 38
e 35 41
e 35 42
e 35 43
e 35 46
e 35 47
e 35 49
e 35 53
e 35 54
e 35 55
e 35 57
e 35 60
e 35 61
e 35 62
e 35 63
e 35 70
e 35 71
e 35 74
e 35 76
e 35 79
e 35 84
e 35 85
e 35 87
e 35 89
e 35 90
e 35 91
e 35 98
e 35 100
e 36 38
e 36 42
e 36 43
e 36 44
e 36 45
e 36 47
e 36 51
e 36 53
e 36 55
e 36 57
e 36 58
e 36 64
e 36 66
e 36 69
e 36 72
e 36 75
e 36 76
e 36 79
e 36 80
e 36 81
e 36 83
e 36 92
e 36 93
e 36 94
e 36 95
e 36 97
e 37 38
e 37 39
e 37 40
e 37 42
e 37 44
e 37 45
e 37 46
e 37 48
e 37 52
e 37 53
e 37 55
e 37 56
e 37 60
e 37 62
e 37 64
e 37 66
e 37 67
e 37 68
e 37 69
e 37 71
e 37 72
e 37 80
e 37 82
e 37 84
e 37 85
e 37 88
e 37 89
e 37 90
e 37 94
e 37 97
e 37 99
e 37 100
e 38 46
e 38 48
e 38 53
e 38 57
e 38 58
e 38 60
e 38 62
e 38 64
e 38 66
e 38 67
e 38 70
e 38 72
e 38 75
e 38 77
e 38 78
e 38 79
e 38 83
e 38 84
e 38 85
e 38 86
e 38 87
e 38 89
e 38 95
e 38 96
e 38 97
e 38 99
e 38 100
e 39 40
e 39 42
e 39 44
e 39 45
e 39 47
e 39 48
e 39 49
e 39 52
e 39 54
e 39 55
e 39 56
e 39 57
e 39 58
e 39 59
e 39 60
e 39 61
e 39 65
e 39 66
e 39 67
e 39 68
e 39 71
e 39 73
e 39 76
e 39 78
e 39 80
e 39 82
e 39 84
e 39 92
e 39 93
e 39 94
e 39 95
e 39 96
e 39 99
e 40 42
e 40 43
e 40 45
e 40 46
e 40 49
e 40 50
e 40 51
e 40 52
e 40 55
e 40 57
e 40 59
e 40 60
e 40 61
e 40 62
e 40 67
e 40 71
e 40 72
e 40 73
e 40 74
e 40 78
e 40 79
e 40 82
e 40 83
e 40 84
e 40 85
e 40 88
e 40 89
e 40 90
e 40 92
e 40 96
e 40 99
e 41 42
e 41 44
e 41 45
e 41 46
e 41 47
e 41 48
e 41 49
e 41 50
e 41 51
e 41 53
e 41 54
e 41 56
e 41 57
e 41 58
e 41 59
e 41 60
e 41 62
e 41 64
e 41 67
e 41 68
e 41 69
e 41 70
e 41 71
e 41 74
e 41 75
e 41 76
e 41 78
e 41 80
e 41 81
e 41 82
e 41 83
e 41 84
e 41 85
e 41 86
e 41 87
e 41 89
e 41 90
e 41 93
e 41 94
e 41 96
e 41 97
e 41 99
e 41 100
e 42 43
e 42 44
e 42 46
e 42 47
e 42 50
e 42 51
e 42 53
e 42 54
e 42 61
e 42 64
e 42 65
e 42 66
e 42 67
e 42 68
e 42 70
e 42 72
e 42 73
e 42 76
e 42 77
e 42 79
e 42 80
e 42 84
e 42 86
e 42 87
e 42 89
e 42 96
e 42 99
e 42 100
e 43 44
e 43 45
e 43 46
e 43 47
e 43 50
e 43 53
e 43 56
e 43 57
e 43 58
e 43 59
e 43 65
e 43 68
e 43 71
e 43 72
e 43 73
e 43 75
e 43 76
e 43 77
e 43 79
e 43 82
e 43 85
e 43 88
e 43 89
e 43 91
e 43 96
e 43 100
e 44 47
e 44 48
e 44 49
e 44 54
e 44 55
e 44 56
e 44 58
e 44 60
e 44 62
e 44 63
e 44 64
e 44 67
e 44 68
e 44 69
e 44 70
e 44 71
e 44 73
e 44 77
e 44 79
e 44 81
e 44 83
e 44 85
e 44 86
e 44 91
e 44 92
e 44 94
e 44 99
e 44 100
e 45 48
e 45 49
e 45 55
e 45 56
e 45 59
e 45 60
e 45 62
e 45 65
e 45 66
e 45 68
e 45 74
e 45 76
e 45 80
e 45 82
e 45 83
e 45 84
e 45 86
e 45 89
e 45 90
e 45 91
e 45 93
e 45 94
e 45 97
e 45 98
e 46 48
e 46 49
e 46 53
e 46 57
e 46 59
e 46 60
e 46 61
e 46 63
e 46 65
e 46 67
e 46 68
e 46 71
e 46 72
e 46 74
e 46 75
e 46 76
e 46 79
e 46 81
e 46 83
e 46 84
e 46 85
e 46 86
e 46 87
e 46 88
e 46 94
e 46 96
e 46 97
e 46 98
e 46 100
e 47 48
e 47 49
e 47 54
e 47 59
e 47 60
e 47 62
e 47 66
e 47 69
e 47 70
e 47 72
e 47 73
e 47 76
e 47 77
e 47 81
e 47 83
e 47 85
e 47 86
e 47 87
e 47 89
e 47 90
e 47 93
e 47 94
e 47 96
e 47 97
e 47 98
e 48 51
e 48 55
e 48 56
e 48 57
e 48 62
e 48 64
e 48 68
e 48 74
e 48 75
e 48 76
e 48 80
e 48 83
e 48 84
e 48 86
e 48 87
e 48 88
e 48 89
e 48 90
e 48 93
e 48 95
e 48 99
e 49 52
e 49 54
e 49 56
e 49 57
e 49 58
e 49 60
e 49 62
e 49 66
e 49 68
e 49 70
e 49 72
e 49 74
e 49 78
e 49 79
e 49 80
e 49 84
e 49 85
e 49 87
e 49 89
e 49 90
e 49 91
e 49 92
e 49 94
e 49 95
e 49 96
e 49 98
e 49 100
e 50 51
e 50 52
e 50 53
e 50 55
e 50 56
e 50 57
e 50 59
e 50 60
e 50 63
e 50 64
e 50 65
e 50 68
e 50 72
e 50 79
e 50 80
e 50 81
e 50 83
e 50 86
e 50 87
e 50 88
e 50 89
e 50 91
e 50 93
e 51 52
e 51 57
e 51 58
e 51 59
e 51 60
e 51 62
e 51 64
e 51 68
e 51 69
e 51 71
e 51 73
e 51 77
e 51 81
e 51 83
e 51 86
e 51 90
e 51 91
e 51 95
e 51 96
e 51 97
e 51 99
e 52 53
e 52 54
e 52 55
e 52 57
e 52 59
e 52 60
e 52 63
e 52 64
e 52 67
e 52 72
e 52 79
e 52 81
e 52 84
e 52 87
e 52 89
e 52 91
e 52 93
e 52 94
e 52 95
e 52 96
e 52 98
e 53 54
e 53 56
e 53 60
e 53 62
e 53 63
e 53 64
e 53 65
e 53 66
e 53 67
e 53 69
e 53 70
e 53 71
e 53 72
e 53 74
e 53 76
e 53 77
e 53 78
e 53 81
e 53 87
e 53 88
e 53 89
e 53 91
e 53 94
e 53 96
e 53 98
e 53 99
e 54 56
e 54 57
e 54 60
e 54 62
e 54 65
e 54 69
e 54 71
e 54 72
e 54 75
e 54 77
e 54 80
e 54 81
e 54 86
e 54 87
e 54 88
e 54 89
e 54 90
e 54 91
e 54 95
e 54 98
e 54 100
e 55 57
e 55 58
e 55 60
e 55 61
e 55 62
e 55 67
e 55 69
e 55 70
e 55 71
e 55 73
e 55 76
e 55 78
e 55 79
e 55 82
e 55 83
e 55 85
e 55 91
e 55 92
e 55 93
e 55 94
e 55 96
e 56 59
e 56 60
e 56 61
e 56 62
e 56 67
e 56 69
e 56 70
e 56 72
e 56 74
e 56 76
e 56 77
e 56 79
e 56 80
e 56 81
e 56 82
e 56 83
e 56 85
e 56 86
e 56 88
e 56 89
e 56 92
e 56 94
e 56 95
e 56 96
e 56 97
e 57 62
e 57 65
e 57 67
e 57 68
e 57 69
e 57 71
e 57 73
e 57 75
e 57 77
e 57 84
e 57 85
e 57 86
e 57 89
e 57 90
e 57 92
e 57 94
e 57 97
e 57 98
e 58 60
e 58 64
e 58 67
e 58 68
e 58 74
e 58 75
e 58 81
e 58 84
e 58 87
e 58 91
e 58 92
e 58 93
e 58 95
e 58 96
e 58 97
e 58 98
e 58 99
e 58 100
e 59 60
e 59 61
e 59 63
e 59 64
e 59 67
e 59 68
e 59 73
e 59 75
e 59 76
e 59 80
e 59 81
e 59 84
e 59 85
e 59 86
e 59 88
e 59 89
e 59 90
e 59 93
e 59 94
e 59 97
e 59 100
e 60 61
e 60 65
e 60 66
e 60 67
e 60 68
e 60 70
e 60 74
e 60 76
e 60 78
e 60 80
e 60 83
e 60 84
e 60 86
e 60 87
e 60 88
e 60 89
e 60 91
e 60 93
e 60 95
e 60 97
e 60 98
e 60 99
e 60 100
e 61 62
e 61 63
e 61 64
e 61 65
e 61 70
e 61 72
e 61 73
e 61 77
e 61 78
e 61 79
e 61 80
e 61 81
e 61 82
e 61 83
e 61 86
e 61 88
e 61 89
e 61 92
e 61 95
e 61 97
e 61 99
e 61 100
e 62 63
e 62 64
e 62 66
e 62 70
e 62 73
e 62 74
e 62 75
e 62 78
e 62 80
e 62 82
e 62 83
e 62 86
e 62 87
e 62 88
e 62 89
e 62 92
e 62 93
e 62 94
e 62 96
e 62 98
e 62 99
e 62 100
e 63 66
e 63 68
e 63 70
e 63 77
e 63 78
e 63 80
e 63 81
e 63 82
e 63 83
e 63 85
e 63 86
e 63 88
e 63 91
e 63 95
e 63 96
e 63 97
e 64 66
e 64 67
e 64 68
e 64 69
e 64 71
e 64 72
e 64 73
e 64 74
e 64 75
e 64 76
e 64 77
e 64 85
e 64 86
e 64 90
e 64 92
e 64 94
e 64 95
e 64 97
e 64 99
e 64 100
e 65 68
e 65 70
e 65 71
e 65 73
e 65 74
e 65 76
e 65 79
e 65 80
e 65 82
e 65 85
e 65 86
e 65 87
e 65 89
e 65 91
e 65 93
e 65 94
e 65 96
e 65 97
e 65 98
e 65 99
e 65 100
e 66 68
e 66 72
e 66 79
e 66 80
e 66 87
e 66 89
e 66 91
e 66 94
e 66 96
e 66 100
e 67 68
e 67 69
e 67 73
e 67 76
e 67 79
e 67 80
e 67 82
e 67 83
e 67 84
e 67 86
e 67 87
e 67 90
e 67 91
e 67 92
e 67 93
e 67 94
e 67 95
e 67 98
e 67 100
e 68 71
e 68 74
e 68 76
e 68 78
e 68 79
e 68 81
e 68 84
e 68 86
e 68 88
e 68 89
e 68 91
e 68 92
e 68 98
e 68 99
e 68 100
e 69 70
e 69 71
e 69 72
e 69 74
e 69 75
e 69 77
e 69 78
e 69 79
e 69 80
e 69 81
e 69 82
e 69 83
e 69 86
e 69 87
e 69 88
e 69 89
e 69 91
e 69 92
e 69 93
e 69 96
e 69 97
e 69 98
e 69 100
e 70 72
e 70 74
e 70 77
e 70 78
e 70 82
e 70 85
e 70 88
e 70 92
e 70 93
e 70 96
e 70 97
e 70 100
e 71 72
e 71 74
e 71 75
e 71 77
e 71 78
e 71 80
e 71 82
e 71 83
e 71 86
e 71 88
e 71 89
e 71 91
e 71 92
e 71 96
e 71 98
e 71 99
e 72 75
e 72 77
e 72 78
e 72 79
e 72 80
e 72 84
e 72 88
e 72 89
e 72 90
e 72 91
e 72 93
e 72 96
e 72 97
e 72 100
e 73 74
e 73 76
e 73 77
e 73 78
e 73 80
e 73 81
e 73 82
e 73 85
e 73 87
e 73 88
e 73 89
e 73 91
e 73 93
e 73 94
e 73 95
e 73 98
e 73 99
e 73 100
e 74 77
e 74 78
e 74 82
e 74 83
e 74 85
e 74 86
e 74 87
e 74 89
e 74 91
e 75 77
e 75 79
e 75 80
e 75 82
e 75 83
e 75 85
e 75 86
e 75 88
e 75 89
e 75 91
e 75 93
e 75 95
e 75 96
e 75 99
e 75 100
e 76 77
e 76 78
e 76 80
e 76 82
e 76 83
e 76 86
e 76 87
e 76 88
e 76 94
e 76 97
e 76 98
e 76 100
e 77 78
e 77 83
e 77 84
e 77 88
e 77 90
e 77 93
e 77 94
e 77 95
e 77 97
e 77 100
e 78 81
e 78 87
e 78 88
e 78 89
e 78 91
e 78 94
e 78 95
e 78 99
e 78 100
e 79 82
e 79 85
e 79 86
e 79 87
e 79 88
e 79 90
e 79 92
e 79 93
e 79 94
e 79 96
e 79 98
e 79 100
e 80 81
e 80 84
e 80 85
e 80 88
e 80 89
e 80 97
e 80 98
e 80 99
e 80 100
e 81 82
e 81 84
e 81 86
e 81 87
e 81 88
e 81 90
e 81 91
e 81 93
e 81 94
e 81 95
e 81 96
e 81 99
e 81 100
e 82 84
e 82 87
e 82 89
e 82 90
e 82 91
e 82 94
e 82 96
e 82 97
e 82 99
e 82 100
e 83 86
e 83 87
e 83 88
e 83 89
e 83 93
e 83 98
e 83 99
e 83 100
e 84 85
e 84 87
e 84 88
e 84 91
e 84 93
e 84 94
e 84 96
e 84 99
e 85 86
e 85 88
e 85 90
e 85 92
e 85 94
e 85 97
e 85 99
e 86 87
e 86 93
e 86 95
e 86 96
e 86 98
e 86 99
e 87 89
e 87 91
e 87 93
e 87 95
e 87 96
e 87 97
e 87 99
e 88 89
e 88 92
e 88 95
e 88 99
e 88 100
e 89 91
e 89 95
e 89 96
e 89 97
e 89 98
e 90 93
e 90 94
e 90 98
e 91 92
e 91 95
e 91 96
e 91 98
e 91 99
e 92 95
e 92 96
e 92 98
e 92 99
e 92 100
e 93 94
e 93 96
e 93 97
e 93 98
e 94 95
e 94 96
e 94 97
e 94 98
e 94 99
e 95 96
e 95 97
e 95 100
e 96 97
e 96 100
e 97 98
e 97 99
e 97 100
e 99 100
